20
115
4
28
22
68
1
0 2
0 3
0 4
0 6
0 7
0 8
0 9
0 10
0 14
0 16
0 17
0 18
0 19
1 2
1 3
1 6
1 8
1 9
1 10
1 12
1 13
1 17
1 18
1 19
2 3
2 4
2 5
2 7
2 12
2 13
2 15
2 16
2 17
2 19
3 4
3 6
3 7
3 8
3 9
3 10
3 11
3 12
3 13
3 15
3 16
3 18
3 19
4 5
4 6
4 7
4 11
4 12
4 14
4 18
4 19
5 10
5 11
5 12
5 14
5 16
5 17
6 9
6 10
6 11
6 12
6 13
6 14
6 15
6 16
6 18
7 9
7 11
7 12
7 19
8 9
8 10
8 11
8 12
8 13
8 18
9 10
9 13
9 15
9 17
9 18
10 12
10 14
10 15
10 17
11 12
11 13
11 14
11 15
11 16
11 17
11 18
11 19
12 14
12 15
12 16
12 17
13 14
13 15
13 16
13 17
13 18
13 19
14 17
14 19
15 16
15 17
15 18
15 19
17 19
18 19
9 7 6 3 1 5
10 18 17 11 2 14
8 12 16 19 4 15
0 13
